tsp_instances/TSP20/instance82.tsp
NODE_COORD_SECTION
0 121 124
1 154 25
2 132 135
3 77 138
4 47 5
5 63 198
6 101 59
7 1 127
8 28 78
9 123 78
10 74 111
11 125 6
12 132 14
13 60 27
14 11 58
15 105 127
16 157 123
17 6 198
18 15 182
19 191 159
