tsp_instances/TSP20/instance82.opt.tour
TOUR_SECTION
1
3
20
17
10
7
2
13
12
14
5
15
9
8
19
18
6
4
11
16
-1